(set-logic QF_S)
(declare-const x String)
(declare-const y String)
(assert (str.in.re x (str.to.re "")))
(assert (= 5 (str.len x)))
(assert (not (= x ":#1""""")))
(assert (not (= x "naLk+$")))
(assert (not (= x "S")))
(check-sat)
